Simon32/MILP/sol/7Round_828.sol
# Objective value = 16.0
xobj 16.0
L1_r1 -0.0
L8_r1 -0.0
v_AfterAnd_1_0 -0.0
L2_r1 -0.0
L9_r1 -0.0
v_AfterAnd_1_1 0.0
L3_r1 0.0
L10_r1 -0.0
v_AfterAnd_1_2 -0.0
L4_r1 -0.0
L11_r1 -0.0
v_AfterAnd_1_3 -0.0
L5_r1 -0.0
L12_r1 -0.0
v_AfterAnd_1_4 -0.0
L6_r1 -0.0
L13_r1 0.9999999999999944
v_AfterAnd_1_5 -0.0
L7_r1 1.0
L14_r1 0.0
v_AfterAnd_1_6 0.0
L15_r1 0.0
v_AfterAnd_1_7 0.0
L0_r1 -0.0
v_AfterAnd_1_8 0.0
v_AfterAnd_1_9 0.0
v_AfterAnd_1_10 -0.0
v_AfterAnd_1_11 -0.0
v_AfterAnd_1_12 0.0
v_AfterAnd_1_13 -0.0
v_AfterAnd_1_14 -0.0
v_AfterAnd_1_15 -0.0
S0_r1 0.0
S1_r1 0.0
S2_r1 0.0
S3_r1 -0.0
S4_r1 0.0
S5_r1 0.9999999999999944
S6_r1 1.0
S7_r1 -0.0
S8_r1 0.0
S9_r1 0.0
S10_r1 -0.0
S11_r1 0.0
S12_r1 0.9999999999999944
S13_r1 0.0
S14_r1 -0.0
S15_r1 1.0
R0_r1 0.0
L0_r2 0.0
R1_r1 -2.0489562427680347e-16
L1_r2 -2.0489562427680347e-16
R2_r1 -2.0489562427680347e-16
L2_r2 -2.0489562427680347e-16
R3_r1 1.0
L3_r2 1.0
R4_r1 0.0
L4_r2 0.0
R5_r1 1.0000000000000004
L5_r2 3.528923185415675e-16
R6_r1 0.0
L6_r2 -0.0
R7_r1 -0.0
L7_r2 0.0
R8_r1 0.0
L8_r2 -0.0
R9_r1 2.4234582594674846e-15
L9_r2 2.4234582594674846e-15
R10_r1 0.0
L10_r2 0.0
R11_r1 1.0
L11_r2 1.9389252108632193e-16
R12_r1 -0.0
L12_r2 0.0
R13_r1 0.0
L13_r2 -0.0
R14_r1 0.0
L14_r2 0.0
R15_r1 0.9999999999999976
L15_r2 0.9999999999999976
R0_r2 -0.0
R1_r2 -0.0
R2_r2 -0.0
R3_r2 0.0
R4_r2 -0.0
R5_r2 -0.0
R6_r2 -0.0
R7_r2 1.0
R8_r2 -0.0
R9_r2 -0.0
R10_r2 -0.0
R11_r2 -0.0
R12_r2 -0.0
R13_r2 0.9999999999999944
R14_r2 0.0
R15_r2 0.0
v_AfterAnd_2_0 -2.0489562427680347e-16
v_AfterAnd_2_1 6.274346122024456e-15
v_AfterAnd_2_2 0.0
v_AfterAnd_2_3 1.8001473327850748e-16
v_AfterAnd_2_4 0.0
v_AfterAnd_2_5 -0.0
v_AfterAnd_2_6 0.0
v_AfterAnd_2_7 0.9999999999999963
v_AfterAnd_2_8 0.0
v_AfterAnd_2_9 -2.0489562427680347e-16
v_AfterAnd_2_10 0.0
v_AfterAnd_2_11 0.0
v_AfterAnd_2_12 0.0
v_AfterAnd_2_13 4.639146210040832e-16
v_AfterAnd_2_14 -0.0
v_AfterAnd_2_15 0.0
S0_r2 -2.0489562427680347e-16
S1_r2 6.274346122024456e-15
S2_r2 1.0
S3_r2 1.8001473327850748e-16
S4_r2 3.528923185415675e-16
S5_r2 0.0
S6_r2 0.0
S7_r2 0.9999999999999976
S8_r2 2.4234582594674846e-15
S9_r2 -2.0489562427680347e-16
S10_r2 1.9389252108632193e-16
S11_r2 1.0
S12_r2 0.0
S13_r2 4.639146210040832e-16
S14_r2 0.9999999999999976
S15_r2 0.0
L0_r3 -0.0
L1_r3 0.9999999999999952
L2_r3 0.0
L3_r3 1.7287758526306004e-16
L4_r3 -0.0
L5_r3 1.5612511283791264e-16
L6_r3 0.0
L7_r3 -7.168868673293873e-16
L8_r3 -0.0
L9_r3 6.919068492753207e-17
L10_r3 -0.0
L11_r3 -0.0
L12_r3 -0.0
L13_r3 1.7922171683234655e-16
L14_r3 0.0
L15_r3 -2.118345181807107e-16
R0_r3 0.0
R1_r3 -2.0489562427680347e-16
R2_r3 -2.0489562427680347e-16
R3_r3 1.0
R4_r3 0.0
R5_r3 3.528923185415675e-16
R6_r3 -0.0
R7_r3 0.0
R8_r3 -0.0
R9_r3 2.4234582594674846e-15
R10_r3 0.0
R11_r3 1.9389252108632193e-16
R12_r3 0.0
R13_r3 -0.0
R14_r3 0.0
R15_r3 0.9999999999999976
v_AfterAnd_3_0 -0.0
v_AfterAnd_3_1 6.919068492753207e-17
v_AfterAnd_3_2 4.907185768843192e-15
v_AfterAnd_3_3 0.0
v_AfterAnd_3_4 -0.0
v_AfterAnd_3_5 1.5670004976137923e-15
v_AfterAnd_3_6 0.0
v_AfterAnd_3_7 -2.118345181807107e-16
v_AfterAnd_3_8 1.214306433183765e-16
v_AfterAnd_3_9 2.4234582594674846e-15
v_AfterAnd_3_10 0.0
v_AfterAnd_3_11 1.7287758526306004e-16
v_AfterAnd_3_12 -0.0
v_AfterAnd_3_13 1.5612511283791264e-16
v_AfterAnd_3_14 0.0
v_AfterAnd_3_15 -7.168868673293873e-16
S0_r3 0.9999999999999952
S1_r3 6.919068492753207e-17
S2_r3 1.7287758526306004e-16
S3_r3 -0.0
S4_r3 1.5612511283791264e-16
S5_r3 1.5670004976137923e-15
S6_r3 -7.168868673293873e-16
S7_r3 -2.118345181807107e-16
S8_r3 6.919068492753207e-17
S9_r3 0.9999999999999952
S10_r3 -0.0
S11_r3 1.7287758526306004e-16
S12_r3 1.7922171683234655e-16
S13_r3 1.5612511283791264e-16
S14_r3 0.0
S15_r3 -7.168868673293873e-16
L0_r4 0.0
L1_r4 -5.570940534279805e-17
L2_r4 6.496390726949487e-15
L3_r4 1.0
L4_r4 -0.0
L5_r4 -3.552713678800501e-15
L6_r4 -0.0
L7_r4 1.5612511283791264e-16
L8_r4 1.214306433183765e-16
L9_r4 -0.0
L10_r4 -0.0
L11_r4 2.357241386213056e-16
L12_r4 -0.0
L13_r4 -0.0
L14_r4 -0.0
L15_r4 -1.3013399881499158e-15
R0_r4 -0.0
R1_r4 0.9999999999999952
R2_r4 0.0
R3_r4 1.7287758526306004e-16
R4_r4 -0.0
R5_r4 1.5612511283791264e-16
R6_r4 0.0
R7_r4 -7.168868673293873e-16
R8_r4 -0.0
R9_r4 6.919068492753207e-17
R10_r4 -0.0
R11_r4 -0.0
R12_r4 -0.0
R13_r4 1.7922171683234655e-16
R14_r4 0.0
R15_r4 -2.118345181807107e-16
v_AfterAnd_4_0 6.496390726949487e-15
v_AfterAnd_4_1 6.496390726949487e-15
v_AfterAnd_4_2 -0.0
v_AfterAnd_4_3 2.357241386213056e-16
v_AfterAnd_4_4 -0.0
v_AfterAnd_4_5 -0.0
v_AfterAnd_4_6 1.5612511283791264e-16
v_AfterAnd_4_7 -1.3013399881499158e-15
v_AfterAnd_4_8 0.0
v_AfterAnd_4_9 -0.0
v_AfterAnd_4_10 1.7763568394002505e-15
v_AfterAnd_4_11 -0.0
v_AfterAnd_4_12 -0.0
v_AfterAnd_4_13 -0.0
v_AfterAnd_4_14 -0.0
v_AfterAnd_4_15 1.5612511283791264e-16
S0_r4 6.496390726949487e-15
S1_r4 6.496390726949487e-15
S2_r4 1.0
S3_r4 2.357241386213056e-16
S4_r4 -3.552713678800501e-15
S5_r4 -0.0
S6_r4 1.5612511283791264e-16
S7_r4 -1.3013399881499158e-15
S8_r4 0.0
S9_r4 0.0
S10_r4 6.496390726949487e-15
S11_r4 1.0
S12_r4 0.0
S13_r4 -3.552713678800501e-15
S14_r4 -1.3013399881499158e-15
S15_r4 1.5612511283791264e-16
L0_r5 -0.0
L1_r5 -0.0
L2_r5 0.0
L3_r5 -6.860583529848847e-16
L4_r5 -0.0
L5_r5 -0.0
L6_r5 0.0
L7_r5 1.5281426917519117e-15
L8_r5 -0.0
L9_r5 1.5612511283791264e-16
L10_r5 1.7763568394002505e-15
L11_r5 -0.0
L12_r5 -0.0
L13_r5 -1.1546319456101628e-15
L14_r5 -0.0
L15_r5 0.0
R0_r5 0.0
R1_r5 -5.570940534279805e-17
R2_r5 6.496390726949487e-15
R3_r5 1.0
R4_r5 -0.0
R5_r5 -3.552713678800501e-15
R6_r5 -0.0
R7_r5 1.5612511283791264e-16
R8_r5 1.214306433183765e-16
R9_r5 -0.0
R10_r5 -0.0
R11_r5 2.357241386213056e-16
R12_r5 -0.0
R13_r5 -0.0
R14_r5 -0.0
R15_r5 -1.3013399881499158e-15
v_AfterAnd_5_0 0.0
v_AfterAnd_5_1 -0.0
v_AfterAnd_5_2 3.577891950966107e-15
v_AfterAnd_5_3 -0.0
v_AfterAnd_5_4 0.0
v_AfterAnd_5_5 -1.1546319456101628e-15
v_AfterAnd_5_6 -0.0
v_AfterAnd_5_7 -0.0
v_AfterAnd_5_8 1.5612511283791264e-16
v_AfterAnd_5_9 1.7763568394002505e-15
v_AfterAnd_5_10 0.0
v_AfterAnd_5_11 -6.860583529848847e-16
v_AfterAnd_5_12 -6.860583529848847e-16
v_AfterAnd_5_13 0.0
v_AfterAnd_5_14 -0.0
v_AfterAnd_5_15 1.5281426917519117e-15
S0_r5 0.0
S1_r5 1.5612511283791264e-16
S2_r5 3.577891950966107e-15
S3_r5 0.0
S4_r5 0.0
S5_r5 -1.1546319456101628e-15
S6_r5 1.5281426917519117e-15
S7_r5 0.0
S8_r5 1.5612511283791264e-16
S9_r5 1.7763568394002505e-15
S10_r5 -0.0
S11_r5 -6.860583529848847e-16
S12_r5 -1.1546319456101628e-15
S13_r5 0.0
S14_r5 -0.0
S15_r5 1.5281426917519117e-15
L0_r6 0.0
L1_r6 -1.4876988529977092e-15
L2_r6 -1.4876988529977092e-15
L3_r6 1.0
L4_r6 -0.0
L5_r6 -6.860583529848847e-16
L6_r6 0.0
L7_r6 -0.0
L8_r6 0.0
L9_r6 1.7763568394002505e-15
L10_r6 0.0
L11_r6 1.5612511283791264e-16
L12_r6 -6.860583529848847e-16
L13_r6 -0.0
L14_r6 0.0
L15_r6 -2.3298823188205073e-15
R0_r6 -0.0
R1_r6 -0.0
R2_r6 0.0
R3_r6 -6.860583529848847e-16
R4_r6 -0.0
R5_r6 -0.0
R6_r6 0.0
R7_r6 1.5281426917519117e-15
R8_r6 -0.0
R9_r6 1.5612511283791264e-16
R10_r6 1.7763568394002505e-15
R11_r6 -0.0
R12_r6 -0.0
R13_r6 -1.1546319456101628e-15
R14_r6 -0.0
R15_r6 0.0
v_AfterAnd_6_0 -1.4876988529977092e-15
v_AfterAnd_6_1 5.617728504603292e-15
v_AfterAnd_6_2 0.0
v_AfterAnd_6_3 0.0
v_AfterAnd_6_4 0.0
v_AfterAnd_6_5 0.0
v_AfterAnd_6_6 0.0
v_AfterAnd_6_7 -2.3298823188205073e-15
v_AfterAnd_6_8 -0.0
v_AfterAnd_6_9 0.0
v_AfterAnd_6_10 -1.4876988529977092e-15
v_AfterAnd_6_11 0.0
v_AfterAnd_6_12 0.0
v_AfterAnd_6_13 -6.860583529848847e-16
v_AfterAnd_6_14 -0.0
v_AfterAnd_6_15 -0.0
S0_r6 -1.4876988529977092e-15
S1_r6 5.617728504603292e-15
S2_r6 1.0
S3_r6 -0.0
S4_r6 -6.860583529848847e-16
S5_r6 0.0
S6_r6 -0.0
S7_r6 -2.3298823188205073e-15
S8_r6 1.7763568394002505e-15
S9_r6 -0.0
S10_r6 -1.4876988529977092e-15
S11_r6 1.0
S12_r6 0.0
S13_r6 -6.860583529848847e-16
S14_r6 -2.3298823188205073e-15
S15_r6 0.0
L0_r7 -0.0
L1_r7 0.9999999999999943
L2_r7 -0.0
L3_r7 0.0
L4_r7 -0.0
L5_r7 0.0
L6_r7 -0.0
L7_r7 0.0
L8_r7 -0.0
L9_r7 0.0
L10_r7 0.0
L11_r7 -0.0
L12_r7 0.0
L13_r7 0.0
L14_r7 0.0
L15_r7 -0.0
R0_r7 0.0
R1_r7 -1.4876988529977092e-15
R2_r7 -1.4876988529977092e-15
R3_r7 1.0
R4_r7 -0.0
R5_r7 -6.860583529848847e-16
R6_r7 0.0
R7_r7 -0.0
R8_r7 0.0
R9_r7 1.7763568394002505e-15
R10_r7 0.0
R11_r7 1.5612511283791264e-16
R12_r7 -6.860583529848847e-16
R13_r7 -0.0
R14_r7 0.0
R15_r7 -2.3298823188205073e-15
v_AfterAnd_7_0 0.0
v_AfterAnd_7_1 -0.0
v_AfterAnd_7_2 -0.0
v_AfterAnd_7_3 -0.0
v_AfterAnd_7_4 -0.0
v_AfterAnd_7_5 -0.0
v_AfterAnd_7_6 -0.0
v_AfterAnd_7_7 -0.0
v_AfterAnd_7_8 -0.0
v_AfterAnd_7_9 -0.0
v_AfterAnd_7_10 -0.0
v_AfterAnd_7_11 -1.5612511283791264e-16
v_AfterAnd_7_12 -0.0
v_AfterAnd_7_13 0.0
v_AfterAnd_7_14 -0.0
v_AfterAnd_7_15 -0.0
S0_r7 0.9999999999999943
S1_r7 -0.0
S2_r7 -0.0
S3_r7 0.0
S4_r7 0.0
S5_r7 0.0
S6_r7 -0.0
S7_r7 0.0
S8_r7 0.0
S9_r7 0.9999999999999943
S10_r7 -0.0
S11_r7 0.0
S12_r7 0.0
S13_r7 -0.0
S14_r7 0.0
S15_r7 0.0
L0_r8 -0.0
L1_r8 -0.0
L2_r8 -0.0
L3_r8 1.0
L4_r8 -0.0
L5_r8 -6.860583529848847e-16
L6_r8 0.0
L7_r8 0.0
L8_r8 0.0
L9_r8 1.7763568394002505e-15
L10_r8 -0.0
L11_r8 -0.0
L12_r8 -6.305472017536269e-16
L13_r8 0.0
L14_r8 -0.0
L15_r8 0.9999999999999963
R0_r8 -0.0
R1_r8 0.9999999999999943
R2_r8 -0.0
R3_r8 0.0
R4_r8 -0.0
R5_r8 0.0
R6_r8 -0.0
R7_r8 0.0
R8_r8 -0.0
R9_r8 0.0
R10_r8 0.0
R11_r8 -0.0
R12_r8 0.0
R13_r8 0.0
R14_r8 0.0
R15_r8 -0.0
